c instance by G2
c solution = 1001111111001110100
c Known solution cost is 774 
p cnf 19 30
w 20 79 40 84 74 82 25 20 2 90 8 33 45 18 25 60 1 63 5
-18 15 3 0
-19 -15 -7 0
-16 2 18 0
-14 -9 -3 0
12 19 7 0
14 -4 3 0
13 9 -8 0
7 4 17 0
-12 -8 -13 0
8 -14 18 0
-5 -3 7 0
-13 -1 5 0
-5 15 -14 0
-15 11 9 0
2 -18 -7 0
18 16 1 0
11 -2 -9 0
-9 17 4 0
-14 -1 -18 0
-6 4 -1 0
-19 1 -7 0
17 5 13 0
19 10 -17 0
3 2 13 0
-11 19 -8 0
15 11 19 0
17 -4 2 0
-15 8 -6 0
18 -15 5 0
6 19 16 0
